\* Problem: Unknown *\

Maximize
 obj: + xp_0_0 + xp_0_1 + xp_0_2 + xp_0_3 + xp_0_4 + xp_0_5 + xp_0_6
 + xp_1_0 + xp_1_1 + xp_2_0 + xp_2_1 + xp_2_2 + xp_2_3 + xp_3_0 + xp_3_1
 + xp_3_2 + xp_4_0 + xp_5_0 + xp_5_1 + xp_5_2 + xp_6_0 + xp_6_1 + xp_7_0
 + xp_7_1 + xp_8_0 + xp_8_1 + xp_9_0 + xp_10_0 + xp_11_0 + xp_11_1
 + xp_11_2 + xp_11_3 + xp_11_4 + xp_12_0 + xp_13_0 + xp_13_1 + xp_14_0
 + xp_14_1 + xp_15_0 + xp_16_0 + xp_16_1 + xp_17_0 + xp_17_1 + xp_17_2
 + xp_17_3 + xp_17_4 + xp_18_0 + xp_18_1 + xp_18_2 + xp_18_3 + xp_18_4
 + xp_19_0 + xp_19_1 + xp_19_2 + xp_19_3 + xp_20_0 + xp_20_1 + xp_20_2
 + xp_20_3 + xp_21_0 + xp_21_1 + xp_21_2 + xp_21_3 + xp_21_4 + xp_22_0
 + xp_22_1 + xp_22_2 + xp_22_3 + xp_22_4 + xp_22_5 + xp_23_0 + xp_23_1
 + xp_23_2 + xp_23_3 + xp_23_4

Subject To
 r_1: 0 xp_0_0 <= 30
 r_2: + xp_22_4 + xp_18_4 + xp_5_1 + xp_2_2 <= 29.0077821011673
 r_3: + xp_18_3 + xp_17_4 + xp_0_4 <= 30
 r_4: + xp_18_2 + xp_15_0 <= 30
 r_5: + xp_18_0 <= 28.0263157894737
 r_6: + xp_18_1 <= 30
 r_7: + xp_20_3 <= 30
 r_8: + xp_23_3 + xp_22_5 + xp_11_3 + xp_3_2 + xp_2_1
 <= 29.0077821011673
 r_9: + xp_23_4 + xp_11_1 + xp_6_1 + xp_3_1 <= 30
 r_10: + xp_11_4 + xp_3_0 <= 30
 r_11: + xp_18_1 + xp_11_2 + xp_0_6 <= 28.0263157894737
 r_12: + xp_11_0 <= 30
 r_13: + xp_5_2 <= 30
 r_14: + xp_21_3 + xp_19_1 + xp_14_0 + xp_0_1 <= 29.0077821011673
 r_15: + xp_21_0 + xp_19_3 <= 30
 r_16: + xp_22_2 + xp_21_1 + xp_0_5 + xp_0_2 <= 30
 r_17: + xp_0_0 <= 28.0263157894737
 r_18: + xp_4_0 + xp_0_4 <= 30
 r_19: + xp_19_0 + xp_0_6 <= 30
 r_20: + xp_21_4 + xp_21_2 + xp_19_2 + xp_14_1 + xp_0_3 <= 30
 r_21: + xp_20_1 <= 29.0077821011673
 r_22: + xp_21_4 + xp_21_3 + xp_7_1 <= 29.0077821011673
 r_23: + xp_22_5 + xp_22_4 + xp_22_3 + xp_17_3 <= 29.0077821011673
 r_24: + xp_23_3 + xp_23_2 + xp_17_2 + xp_3_2 <= 29.0077821011673
 r_25: 0 xp_0_0 <= 29.0077821011673
 r_26: + xp_18_4 + xp_0_3 + xp_0_1 <= 28.0263157894737
 r_27: + xp_11_3 <= 29.0077821011673
 r_28: + xp_19_1 <= 29.0077821011673
 r_29: + xp_20_2 <= 30
 r_30: + xp_2_0 <= 29.0077821011673
 r_31: + xp_23_4 + xp_18_3 + xp_17_4 + xp_6_1 + xp_3_1 + xp_2_3 + xp_0_4
 <= 30
 r_32: 0 xp_0_0 <= 30
 r_33: + xp_11_1 + xp_2_2 <= 30
 r_34: + xp_19_3 + xp_2_1 <= 30
 r_35: 0 xp_0_0 <= 30
 r_36: + xp_9_0 <= 29.0077821011673
 r_37: + xp_21_1 + xp_13_1 + xp_8_1 + xp_0_5 <= 30
 r_38: + xp_1_1 <= 30
 r_39: + xp_17_3 + xp_17_1 <= 30
 r_40: + xp_0_2 <= 28.0263157894737
 r_41: + xp_12_0 + xp_2_3 <= 29.0077821011673
 r_42: + xp_21_1 <= 30
 r_43: + xp_16_0 <= 30
 r_44: + xp_23_4 + xp_23_3 + xp_23_2 + xp_23_1 + xp_16_1 <= 30
 r_45: + xp_17_4 + xp_17_2 + xp_3_2 + xp_3_1 <= 30
 r_46: + xp_18_3 + xp_0_5 + xp_0_4 <= 28.0263157894737
 r_47: + xp_22_1 + xp_16_1 + xp_13_1 <= 30
 r_48: + xp_13_0 <= 30
 r_49: 0 xp_0_0 <= 30
 r_50: 0 xp_0_0 <= 28.0263157894737
 r_51: + xp_8_1 + xp_1_1 <= 30
 r_52: + xp_8_0 <= 30
 r_53: + xp_1_0 <= 30
 r_54: + xp_18_2 <= 28.0263157894737
 r_55: + xp_11_4 <= 30
 r_56: 0 xp_0_0 <= 30
 r_57: + xp_22_2 <= 28.0263157894737
 r_58: + xp_23_2 + xp_22_3 + xp_17_3 + xp_17_2 + xp_5_0
 <= 28.0263157894737
 r_59: + xp_22_0 + xp_17_1 <= 28.0263157894737
 r_60: + xp_23_1 + xp_6_0 <= 28.0263157894737
 r_61: + xp_23_0 + xp_22_1 <= 28.0263157894737
 r_62: + xp_17_0 <= 28.0263157894737
 r_63: + xp_22_4 + xp_17_4 + xp_11_2 + xp_5_1 <= 28.0263157894737
 r_64: + xp_23_4 + xp_23_3 + xp_22_5 + xp_6_1 + xp_5_2
 <= 28.0263157894737
 r_65: + xp_21_4 + xp_20_1 + xp_14_1 + xp_7_1 + xp_5_2 + xp_0_3
 <= 29.0077821011673
 r_66: + xp_21_2 + xp_20_2 + xp_7_0 <= 30
 r_67: + xp_20_3 + xp_19_2 + xp_10_0 <= 30
 r_68: + xp_20_0 <= 30

Bounds
 0 <= xp_0_0 <= 29.2662668169219
 0 <= xp_0_1 <= 9.23817407884125
 0 <= xp_0_2 <= 17.2494111740735
 0 <= xp_0_3 <= 4.00561854761612
 0 <= xp_0_4 <= 2.45387396721802
 0 <= xp_0_5 <= 1.22693698360901
 0 <= xp_0_6 <= 1.22693698360901
 0 <= xp_1_0 <= 20.6896606974049
 0 <= xp_1_1 <= 15.5172455230537
 0 <= xp_2_0 <= 23.3119629133131
 0 <= xp_2_1 <= 4.00561854761612
 0 <= xp_2_2 <= 7.28948872284858
 0 <= xp_2_3 <= 1.09462339174415
 0 <= xp_3_0 <= 25.5012257192756
 0 <= xp_3_1 <= 2.93502886715767
 0 <= xp_3_2 <= 4.73937576440554
 0 <= xp_4_0 <= 26.9446743966203
 0 <= xp_5_0 <= 15.3969567980688
 0 <= xp_5_1 <= 7.69847839903438
 0 <= xp_5_2 <= 3.84923919951719
 0 <= xp_6_0 <= 20.7858916773928
 0 <= xp_6_1 <= 3.46431527956547
 0 <= xp_7_0 <= 19.9198128575015
 0 <= xp_7_1 <= 3.31996880958358
 0 <= xp_8_0 <= 17.8989622777549
 0 <= xp_8_1 <= 2.98316037962582
 0 <= xp_9_0 <= 19.3664847225709
 0 <= xp_10_0 <= 19.3664847225709
 0 <= xp_11_0 <= 28.0393298333129
 0 <= xp_11_1 <= 13.5084198101871
 0 <= xp_11_2 <= 9.50280126257097
 0 <= xp_11_3 <= 9.50280126257097
 0 <= xp_11_4 <= 0.74578208366936
 0 <= xp_12_0 <= 18.1876552177187
 0 <= xp_13_0 <= 15.1563793480989
 0 <= xp_13_1 <= 2.52606322468316
 0 <= xp_14_0 <= 12.0288724984912
 0 <= xp_14_1 <= 4.81154899939649
 0 <= xp_15_0 <= 16.6720172829088
 0 <= xp_16_0 <= 13.71291464828
 0 <= xp_16_1 <= 2.28548577471333
 0 <= xp_17_0 <= 28.0753964227156
 0 <= xp_17_1 <= 9.37048767070611
 0 <= xp_17_2 <= 2.68243456154499
 0 <= xp_17_3 <= 2.68243456154499
 0 <= xp_17_4 <= 4.00561854761612
 0 <= xp_18_0 <= 23.9855637507544
 0 <= xp_18_1 <= 10.4049787168134
 0 <= xp_18_2 <= 4.00561854761612
 0 <= xp_18_3 <= 4.00561854761612
 0 <= xp_18_4 <= 2.3937416215812
 0 <= xp_19_0 <= 28.6768480588772
 0 <= xp_19_1 <= 2.32156838659026
 0 <= xp_19_2 <= 2.32156838659026
 0 <= xp_19_3 <= 10.9703237073869
 0 <= xp_20_0 <= 28.4362706089074
 0 <= xp_20_1 <= 8.40817787082681
 0 <= xp_20_2 <= 2.20127966160535
 0 <= xp_20_3 <= 4.40255932321069
 0 <= xp_21_0 <= 17.826789042764
 0 <= xp_21_1 <= 7.8789074808932
 0 <= xp_21_2 <= 7.8789074808932
 0 <= xp_21_3 <= 4.00561854761612
 0 <= xp_21_4 <= 4.00561854761612
 0 <= xp_22_0 <= 19.4146082238019
 0 <= xp_22_1 <= 5.70168556428484
 0 <= xp_22_2 <= 3.39213403333743
 0 <= xp_22_3 <= 4.00561854761612
 0 <= xp_22_4 <= 3.39213403333743
 0 <= xp_22_5 <= 4.00561854761612
 0 <= xp_23_0 <= 22.8067422571393
 0 <= xp_23_1 <= 5.70168556428484
 0 <= xp_23_2 <= 1.69606701666871
 0 <= xp_23_3 <= 5.70168556428484
 0 <= xp_23_4 <= 4.00561854761612

End
